%%
% Autogenerated by /opt/prj/battleships-ai/src/server/solver.py, instance 4 10x10 [9] #9 <q2c1zc4za1p1c>
% Source: https://www.puzzle-battleships.com/?size=4
%%

size = 10;
hints_num = 5;
hints = [| 2, 8 | 3, 2 | 6, 2 | 8, 10 | 10, 7 |];
ships_num = 10;

constr_rows = [2, 2, 3, 0, 4, 2, 3, 1, 2, 1];
constr_cols = [1, 3, 2, 2, 2, 4, 2, 3, 0, 1];

given_ships = [|
<>, <>, <>, <>, 1, |
<>, <>, <>, <>, 1, |
<>, <>, <>, <>, 1, |
<>, <>, <>, <>, 1, |
<>, <>, <>, <>, 2, |
<>, <>, <>, <>, 2, |
<>, <>, <>, <>, 2, |
<>, <>, <>, <>, 3, |
<>, <>, <>, <>, 3, |
<>, <>, <>, <>, 4  |];

